c description: Graph 4-Colorability of graph: 
c generator: CNFgen (0.9.0)
c copyright: (C) 2012-2020 Massimo Lauria <massimo.lauria@uniroma1.it>
c url: https://massimolauria.net/cnfgen
c
p cnf 200 950
1 2 3 4 0
-1 -2 0
-1 -3 0
-1 -4 0
-2 -3 0
-2 -4 0
-3 -4 0
5 6 7 8 0
-5 -6 0
-5 -7 0
-5 -8 0
-6 -7 0
-6 -8 0
-7 -8 0
9 10 11 12 0
-9 -10 0
-9 -11 0
-9 -12 0
-10 -11 0
-10 -12 0
-11 -12 0
13 14 15 16 0
-13 -14 0
-13 -15 0
-13 -16 0
-14 -15 0
-14 -16 0
-15 -16 0
17 18 19 20 0
-17 -18 0
-17 -19 0
-17 -20 0
-18 -19 0
-18 -20 0
-19 -20 0
21 22 23 24 0
-21 -22 0
-21 -23 0
-21 -24 0
-22 -23 0
-22 -24 0
-23 -24 0
25 26 27 28 0
-25 -26 0
-25 -27 0
-25 -28 0
-26 -27 0
-26 -28 0
-27 -28 0
29 30 31 32 0
-29 -30 0
-29 -31 0
-29 -32 0
-30 -31 0
-30 -32 0
-31 -32 0
33 34 35 36 0
-33 -34 0
-33 -35 0
-33 -36 0
-34 -35 0
-34 -36 0
-35 -36 0
37 38 39 40 0
-37 -38 0
-37 -39 0
-37 -40 0
-38 -39 0
-38 -40 0
-39 -40 0
41 42 43 44 0
-41 -42 0
-41 -43 0
-41 -44 0
-42 -43 0
-42 -44 0
-43 -44 0
45 46 47 48 0
-45 -46 0
-45 -47 0
-45 -48 0
-46 -47 0
-46 -48 0
-47 -48 0
49 50 51 52 0
-49 -50 0
-49 -51 0
-49 -52 0
-50 -51 0
-50 -52 0
-51 -52 0
53 54 55 56 0
-53 -54 0
-53 -55 0
-53 -56 0
-54 -55 0
-54 -56 0
-55 -56 0
57 58 59 60 0
-57 -58 0
-57 -59 0
-57 -60 0
-58 -59 0
-58 -60 0
-59 -60 0
61 62 63 64 0
-61 -62 0
-61 -63 0
-61 -64 0
-62 -63 0
-62 -64 0
-63 -64 0
65 66 67 68 0
-65 -66 0
-65 -67 0
-65 -68 0
-66 -67 0
-66 -68 0
-67 -68 0
69 70 71 72 0
-69 -70 0
-69 -71 0
-69 -72 0
-70 -71 0
-70 -72 0
-71 -72 0
73 74 75 76 0
-73 -74 0
-73 -75 0
-73 -76 0
-74 -75 0
-74 -76 0
-75 -76 0
77 78 79 80 0
-77 -78 0
-77 -79 0
-77 -80 0
-78 -79 0
-78 -80 0
-79 -80 0
81 82 83 84 0
-81 -82 0
-81 -83 0
-81 -84 0
-82 -83 0
-82 -84 0
-83 -84 0
85 86 87 88 0
-85 -86 0
-85 -87 0
-85 -88 0
-86 -87 0
-86 -88 0
-87 -88 0
89 90 91 92 0
-89 -90 0
-89 -91 0
-89 -92 0
-90 -91 0
-90 -92 0
-91 -92 0
93 94 95 96 0
-93 -94 0
-93 -95 0
-93 -96 0
-94 -95 0
-94 -96 0
-95 -96 0
97 98 99 100 0
-97 -98 0
-97 -99 0
-97 -100 0
-98 -99 0
-98 -100 0
-99 -100 0
101 102 103 104 0
-101 -102 0
-101 -103 0
-101 -104 0
-102 -103 0
-102 -104 0
-103 -104 0
105 106 107 108 0
-105 -106 0
-105 -107 0
-105 -108 0
-106 -107 0
-106 -108 0
-107 -108 0
109 110 111 112 0
-109 -110 0
-109 -111 0
-109 -112 0
-110 -111 0
-110 -112 0
-111 -112 0
113 114 115 116 0
-113 -114 0
-113 -115 0
-113 -116 0
-114 -115 0
-114 -116 0
-115 -116 0
117 118 119 120 0
-117 -118 0
-117 -119 0
-117 -120 0
-118 -119 0
-118 -120 0
-119 -120 0
121 122 123 124 0
-121 -122 0
-121 -123 0
-121 -124 0
-122 -123 0
-122 -124 0
-123 -124 0
125 126 127 128 0
-125 -126 0
-125 -127 0
-125 -128 0
-126 -127 0
-126 -128 0
-127 -128 0
129 130 131 132 0
-129 -130 0
-129 -131 0
-129 -132 0
-130 -131 0
-130 -132 0
-131 -132 0
133 134 135 136 0
-133 -134 0
-133 -135 0
-133 -136 0
-134 -135 0
-134 -136 0
-135 -136 0
137 138 139 140 0
-137 -138 0
-137 -139 0
-137 -140 0
-138 -139 0
-138 -140 0
-139 -140 0
141 142 143 144 0
-141 -142 0
-141 -143 0
-141 -144 0
-142 -143 0
-142 -144 0
-143 -144 0
145 146 147 148 0
-145 -146 0
-145 -147 0
-145 -148 0
-146 -147 0
-146 -148 0
-147 -148 0
149 150 151 152 0
-149 -150 0
-149 -151 0
-149 -152 0
-150 -151 0
-150 -152 0
-151 -152 0
153 154 155 156 0
-153 -154 0
-153 -155 0
-153 -156 0
-154 -155 0
-154 -156 0
-155 -156 0
157 158 159 160 0
-157 -158 0
-157 -159 0
-157 -160 0
-158 -159 0
-158 -160 0
-159 -160 0
161 162 163 164 0
-161 -162 0
-161 -163 0
-161 -164 0
-162 -163 0
-162 -164 0
-163 -164 0
165 166 167 168 0
-165 -166 0
-165 -167 0
-165 -168 0
-166 -167 0
-166 -168 0
-167 -168 0
169 170 171 172 0
-169 -170 0
-169 -171 0
-169 -172 0
-170 -171 0
-170 -172 0
-171 -172 0
173 174 175 176 0
-173 -174 0
-173 -175 0
-173 -176 0
-174 -175 0
-174 -176 0
-175 -176 0
177 178 179 180 0
-177 -178 0
-177 -179 0
-177 -180 0
-178 -179 0
-178 -180 0
-179 -180 0
181 182 183 184 0
-181 -182 0
-181 -183 0
-181 -184 0
-182 -183 0
-182 -184 0
-183 -184 0
185 186 187 188 0
-185 -186 0
-185 -187 0
-185 -188 0
-186 -187 0
-186 -188 0
-187 -188 0
189 190 191 192 0
-189 -190 0
-189 -191 0
-189 -192 0
-190 -191 0
-190 -192 0
-191 -192 0
193 194 195 196 0
-193 -194 0
-193 -195 0
-193 -196 0
-194 -195 0
-194 -196 0
-195 -196 0
197 198 199 200 0
-197 -198 0
-197 -199 0
-197 -200 0
-198 -199 0
-198 -200 0
-199 -200 0
-1 -25 0
-2 -26 0
-3 -27 0
-4 -28 0
-1 -65 0
-2 -66 0
-3 -67 0
-4 -68 0
-1 -89 0
-2 -90 0
-3 -91 0
-4 -92 0
-1 -117 0
-2 -118 0
-3 -119 0
-4 -120 0
-1 -145 0
-2 -146 0
-3 -147 0
-4 -148 0
-1 -189 0
-2 -190 0
-3 -191 0
-4 -192 0
-1 -193 0
-2 -194 0
-3 -195 0
-4 -196 0
-5 -25 0
-6 -26 0
-7 -27 0
-8 -28 0
-5 -37 0
-6 -38 0
-7 -39 0
-8 -40 0
-5 -57 0
-6 -58 0
-7 -59 0
-8 -60 0
-5 -69 0
-6 -70 0
-7 -71 0
-8 -72 0
-5 -93 0
-6 -94 0
-7 -95 0
-8 -96 0
-5 -129 0
-6 -130 0
-7 -131 0
-8 -132 0
-5 -149 0
-6 -150 0
-7 -151 0
-8 -152 0
-5 -177 0
-6 -178 0
-7 -179 0
-8 -180 0
-5 -185 0
-6 -186 0
-7 -187 0
-8 -188 0
-9 -33 0
-10 -34 0
-11 -35 0
-12 -36 0
-9 -37 0
-10 -38 0
-11 -39 0
-12 -40 0
-9 -53 0
-10 -54 0
-11 -55 0
-12 -56 0
-9 -77 0
-10 -78 0
-11 -79 0
-12 -80 0
-9 -161 0
-10 -162 0
-11 -163 0
-12 -164 0
-13 -41 0
-14 -42 0
-15 -43 0
-16 -44 0
-13 -57 0
-14 -58 0
-15 -59 0
-16 -60 0
-13 -181 0
-14 -182 0
-15 -183 0
-16 -184 0
-17 -25 0
-18 -26 0
-19 -27 0
-20 -28 0
-17 -37 0
-18 -38 0
-19 -39 0
-20 -40 0
-17 -57 0
-18 -58 0
-19 -59 0
-20 -60 0
-17 -121 0
-18 -122 0
-19 -123 0
-20 -124 0
-17 -177 0
-18 -178 0
-19 -179 0
-20 -180 0
-17 -197 0
-18 -198 0
-19 -199 0
-20 -200 0
-21 -37 0
-22 -38 0
-23 -39 0
-24 -40 0
-21 -65 0
-22 -66 0
-23 -67 0
-24 -68 0
-21 -93 0
-22 -94 0
-23 -95 0
-24 -96 0
-21 -97 0
-22 -98 0
-23 -99 0
-24 -100 0
-21 -153 0
-22 -154 0
-23 -155 0
-24 -156 0
-21 -181 0
-22 -182 0
-23 -183 0
-24 -184 0
-25 -29 0
-26 -30 0
-27 -31 0
-28 -32 0
-25 -73 0
-26 -74 0
-27 -75 0
-28 -76 0
-25 -97 0
-26 -98 0
-27 -99 0
-28 -100 0
-25 -113 0
-26 -114 0
-27 -115 0
-28 -116 0
-25 -145 0
-26 -146 0
-27 -147 0
-28 -148 0
-25 -161 0
-26 -162 0
-27 -163 0
-28 -164 0
-29 -73 0
-30 -74 0
-31 -75 0
-32 -76 0
-29 -81 0
-30 -82 0
-31 -83 0
-32 -84 0
-29 -153 0
-30 -154 0
-31 -155 0
-32 -156 0
-29 -165 0
-30 -166 0
-31 -167 0
-32 -168 0
-33 -53 0
-34 -54 0
-35 -55 0
-36 -56 0
-33 -121 0
-34 -122 0
-35 -123 0
-36 -124 0
-33 -169 0
-34 -170 0
-35 -171 0
-36 -172 0
-37 -145 0
-38 -146 0
-39 -147 0
-40 -148 0
-37 -149 0
-38 -150 0
-39 -151 0
-40 -152 0
-37 -153 0
-38 -154 0
-39 -155 0
-40 -156 0
-37 -169 0
-38 -170 0
-39 -171 0
-40 -172 0
-37 -189 0
-38 -190 0
-39 -191 0
-40 -192 0
-37 -197 0
-38 -198 0
-39 -199 0
-40 -200 0
-41 -65 0
-42 -66 0
-43 -67 0
-44 -68 0
-41 -69 0
-42 -70 0
-43 -71 0
-44 -72 0
-41 -85 0
-42 -86 0
-43 -87 0
-44 -88 0
-41 -165 0
-42 -166 0
-43 -167 0
-44 -168 0
-41 -181 0
-42 -182 0
-43 -183 0
-44 -184 0
-45 -73 0
-46 -74 0
-47 -75 0
-48 -76 0
-45 -105 0
-46 -106 0
-47 -107 0
-48 -108 0
-45 -145 0
-46 -146 0
-47 -147 0
-48 -148 0
-49 -61 0
-50 -62 0
-51 -63 0
-52 -64 0
-49 -101 0
-50 -102 0
-51 -103 0
-52 -104 0
-49 -165 0
-50 -166 0
-51 -167 0
-52 -168 0
-53 -77 0
-54 -78 0
-55 -79 0
-56 -80 0
-53 -105 0
-54 -106 0
-55 -107 0
-56 -108 0
-53 -125 0
-54 -126 0
-55 -127 0
-56 -128 0
-53 -149 0
-54 -150 0
-55 -151 0
-56 -152 0
-53 -185 0
-54 -186 0
-55 -187 0
-56 -188 0
-53 -193 0
-54 -194 0
-55 -195 0
-56 -196 0
-53 -197 0
-54 -198 0
-55 -199 0
-56 -200 0
-57 -69 0
-58 -70 0
-59 -71 0
-60 -72 0
-57 -117 0
-58 -118 0
-59 -119 0
-60 -120 0
-57 -133 0
-58 -134 0
-59 -135 0
-60 -136 0
-57 -137 0
-58 -138 0
-59 -139 0
-60 -140 0
-57 -153 0
-58 -154 0
-59 -155 0
-60 -156 0
-57 -169 0
-58 -170 0
-59 -171 0
-60 -172 0
-57 -181 0
-58 -182 0
-59 -183 0
-60 -184 0
-61 -77 0
-62 -78 0
-63 -79 0
-64 -80 0
-61 -97 0
-62 -98 0
-63 -99 0
-64 -100 0
-61 -105 0
-62 -106 0
-63 -107 0
-64 -108 0
-61 -149 0
-62 -150 0
-63 -151 0
-64 -152 0
-61 -181 0
-62 -182 0
-63 -183 0
-64 -184 0
-65 -73 0
-66 -74 0
-67 -75 0
-68 -76 0
-65 -85 0
-66 -86 0
-67 -87 0
-68 -88 0
-65 -93 0
-66 -94 0
-67 -95 0
-68 -96 0
-65 -145 0
-66 -146 0
-67 -147 0
-68 -148 0
-65 -149 0
-66 -150 0
-67 -151 0
-68 -152 0
-65 -173 0
-66 -174 0
-67 -175 0
-68 -176 0
-65 -185 0
-66 -186 0
-67 -187 0
-68 -188 0
-65 -193 0
-66 -194 0
-67 -195 0
-68 -196 0
-69 -101 0
-70 -102 0
-71 -103 0
-72 -104 0
-69 -113 0
-70 -114 0
-71 -115 0
-72 -116 0
-69 -117 0
-70 -118 0
-71 -119 0
-72 -120 0
-69 -125 0
-70 -126 0
-71 -127 0
-72 -128 0
-69 -141 0
-70 -142 0
-71 -143 0
-72 -144 0
-69 -173 0
-70 -174 0
-71 -175 0
-72 -176 0
-69 -185 0
-70 -186 0
-71 -187 0
-72 -188 0
-69 -193 0
-70 -194 0
-71 -195 0
-72 -196 0
-73 -193 0
-74 -194 0
-75 -195 0
-76 -196 0
-73 -197 0
-74 -198 0
-75 -199 0
-76 -200 0
-77 -85 0
-78 -86 0
-79 -87 0
-80 -88 0
-77 -89 0
-78 -90 0
-79 -91 0
-80 -92 0
-77 -141 0
-78 -142 0
-79 -143 0
-80 -144 0
-81 -93 0
-82 -94 0
-83 -95 0
-84 -96 0
-81 -121 0
-82 -122 0
-83 -123 0
-84 -124 0
-81 -137 0
-82 -138 0
-83 -139 0
-84 -140 0
-85 -105 0
-86 -106 0
-87 -107 0
-88 -108 0
-85 -117 0
-86 -118 0
-87 -119 0
-88 -120 0
-85 -125 0
-86 -126 0
-87 -127 0
-88 -128 0
-85 -157 0
-86 -158 0
-87 -159 0
-88 -160 0
-85 -181 0
-86 -182 0
-87 -183 0
-88 -184 0
-89 -109 0
-90 -110 0
-91 -111 0
-92 -112 0
-89 -181 0
-90 -182 0
-91 -183 0
-92 -184 0
-93 -117 0
-94 -118 0
-95 -119 0
-96 -120 0
-93 -121 0
-94 -122 0
-95 -123 0
-96 -124 0
-93 -145 0
-94 -146 0
-95 -147 0
-96 -148 0
-97 -149 0
-98 -150 0
-99 -151 0
-100 -152 0
-97 -165 0
-98 -166 0
-99 -167 0
-100 -168 0
-97 -173 0
-98 -174 0
-99 -175 0
-100 -176 0
-97 -185 0
-98 -186 0
-99 -187 0
-100 -188 0
-97 -189 0
-98 -190 0
-99 -191 0
-100 -192 0
-101 -149 0
-102 -150 0
-103 -151 0
-104 -152 0
-105 -181 0
-106 -182 0
-107 -183 0
-108 -184 0
-109 -149 0
-110 -150 0
-111 -151 0
-112 -152 0
-109 -153 0
-110 -154 0
-111 -155 0
-112 -156 0
-113 -141 0
-114 -142 0
-115 -143 0
-116 -144 0
-113 -185 0
-114 -186 0
-115 -187 0
-116 -188 0
-113 -193 0
-114 -194 0
-115 -195 0
-116 -196 0
-117 -149 0
-118 -150 0
-119 -151 0
-120 -152 0
-117 -153 0
-118 -154 0
-119 -155 0
-120 -156 0
-117 -165 0
-118 -166 0
-119 -167 0
-120 -168 0
-117 -169 0
-118 -170 0
-119 -171 0
-120 -172 0
-117 -185 0
-118 -186 0
-119 -187 0
-120 -188 0
-125 -153 0
-126 -154 0
-127 -155 0
-128 -156 0
-125 -189 0
-126 -190 0
-127 -191 0
-128 -192 0
-125 -193 0
-126 -194 0
-127 -195 0
-128 -196 0
-129 -137 0
-130 -138 0
-131 -139 0
-132 -140 0
-129 -149 0
-130 -150 0
-131 -151 0
-132 -152 0
-129 -173 0
-130 -174 0
-131 -175 0
-132 -176 0
-129 -177 0
-130 -178 0
-131 -179 0
-132 -180 0
-141 -181 0
-142 -182 0
-143 -183 0
-144 -184 0
-141 -193 0
-142 -194 0
-143 -195 0
-144 -196 0
-153 -185 0
-154 -186 0
-155 -187 0
-156 -188 0
-157 -169 0
-158 -170 0
-159 -171 0
-160 -172 0
-157 -197 0
-158 -198 0
-159 -199 0
-160 -200 0
-169 -193 0
-170 -194 0
-171 -195 0
-172 -196 0
-177 -189 0
-178 -190 0
-179 -191 0
-180 -192 0